(set-logic QF_LIA)
(declare-fun x () Int)
(declare-fun y () Int)
(declare-fun z () Int)
(assert (let ((.def_0 (+ y (- 10)))) (let ((.def_1 (+ 10 y))) (let ((.def_2 (<= 0 x))) (let ((.def_3 (ite .def_2 .def_1 .def_0))) (let ((.def_4 (* (- 1) .def_3))) (let ((.def_5 (+ y .def_4))) (let ((.def_6 (= .def_5 (- 10)))) (let ((.def_7 (not .def_6))) (let ((.def_8 (<= z (- 12)))) (let ((.def_9 (not .def_8))) (let ((.def_10 (or .def_9 .def_7))) (let ((.def_11 (= z .def_3))) (let ((.def_12 (not .def_11))) (let ((.def_13 (or .def_12 .def_10))) (let ((.def_14 (<= 0 y))) (let ((.def_15 (not .def_14))) (let ((.def_16 (or .def_15 .def_13))) (let ((.def_17 (= .def_5 10))) (let ((.def_18 (not .def_17))) (let ((.def_19 (or .def_9 .def_18))) (let ((.def_20 (or .def_12 .def_19))) (let ((.def_21 (or .def_20 .def_15))) (let ((.def_22 (<= y 3))) (let ((.def_23 (not .def_22))) (let ((.def_24 (<= 12 z))) (let ((.def_25 (not .def_24))) (let ((.def_26 (or .def_25 .def_18))) (let ((.def_27 (or .def_26 .def_12))) (let ((.def_28 (or .def_27 .def_23))) (let ((.def_29 (+ y 10))) (let ((.def_30 (ite .def_2 .def_29 .def_0))) (let ((.def_31 (* (- 1) .def_30))) (let ((.def_32 (+ y .def_31))) (let ((.def_33 (<= 10 .def_32))) (let ((.def_34 (not .def_33))) (let ((.def_35 (<= .def_32 10))) (let ((.def_36 (not .def_35))) (let ((.def_37 (or .def_36 .def_34))) (let ((.def_38 (= .def_32 10))) (let ((.def_39 (or .def_38 .def_37))) (let ((.def_40 (<= z .def_30))) (let ((.def_41 (not .def_40))) (let ((.def_42 (<= .def_30 z))) (let ((.def_43 (not .def_42))) (let ((.def_44 (= z .def_30))) (let ((.def_45 (or .def_44 .def_43))) (let ((.def_46 (or .def_45 .def_41))) (let ((.def_47 (<= .def_32 (- 10)))) (let ((.def_48 (not .def_47))) (let ((.def_49 (<= (- 10) .def_32))) (let ((.def_50 (not .def_49))) (let ((.def_51 (= .def_32 (- 10)))) (let ((.def_52 (or .def_51 .def_50))) (let ((.def_53 (or .def_52 .def_48))) (let ((.def_54 (not .def_44))) (let ((.def_55 (or .def_54 .def_40))) (let ((.def_56 (or .def_54 .def_42))) (let ((.def_57 (not .def_51))) (let ((.def_58 (or .def_57 .def_35))) (let ((.def_59 (or .def_57 .def_34))) (let ((.def_60 (or .def_57 .def_47))) (let ((.def_61 (or .def_57 .def_49))) (let ((.def_62 (and .def_28 .def_21 .def_16 .def_61 .def_60 .def_59 .def_58 .def_56 .def_55 .def_53 .def_46 .def_39 .def_28 .def_21 .def_16))) .def_62))))))))))))))))))))))))))))))))))))))))))))))))))))))))))))))))
(check-sat)
